c Reduced graph for DSJR500.1_7 generated by Cyril Grelier
p edge 313 2345
e 1 9
e 1 10
e 1 23
e 1 27
e 1 30
e 1 64
e 1 75
e 1 97
e 1 98
e 1 103
e 1 116
e 1 129
e 1 130
e 1 139
e 1 165
e 1 179
e 1 185
e 1 231
e 1 234
e 1 252
e 1 272
e 1 280
e 1 281
e 2 8
e 2 29
e 2 48
e 2 95
e 2 111
e 2 123
e 2 159
e 2 160
e 2 166
e 2 176
e 2 205
e 2 212
e 2 232
e 2 237
e 2 262
e 2 263
e 2 269
e 2 270
e 2 274
e 3 7
e 3 39
e 3 55
e 3 59
e 3 63
e 3 67
e 3 96
e 3 109
e 3 112
e 3 124
e 3 174
e 3 188
e 3 195
e 3 196
e 3 210
e 3 233
e 3 241
e 3 248
e 3 283
e 4 22
e 4 33
e 4 42
e 4 68
e 4 84
e 4 110
e 4 115
e 4 142
e 4 164
e 4 168
e 4 169
e 4 187
e 4 203
e 4 240
e 4 247
e 4 292
e 4 304
e 4 309
e 5 24
e 5 69
e 5 92
e 5 94
e 5 167
e 5 192
e 5 211
e 5 230
e 5 235
e 5 258
e 5 260
e 5 261
e 5 267
e 5 271
e 5 276
e 5 287
e 5 293
e 5 302
e 6 22
e 6 29
e 6 68
e 6 70
e 6 110
e 6 152
e 6 164
e 6 168
e 6 200
e 6 213
e 6 214
e 6 236
e 6 247
e 6 262
e 6 269
e 6 277
e 6 303
e 6 304
e 7 34
e 7 39
e 7 55
e 7 67
e 7 96
e 7 100
e 7 106
e 7 112
e 7 124
e 7 125
e 7 143
e 7 174
e 7 196
e 7 222
e 7 245
e 7 283
e 8 29
e 8 48
e 8 95
e 8 123
e 8 159
e 8 166
e 8 176
e 8 205
e 8 212
e 8 237
e 8 262
e 8 263
e 8 269
e 8 270
e 8 274
e 8 303
e 9 10
e 9 23
e 9 27
e 9 30
e 9 64
e 9 75
e 9 103
e 9 155
e 9 179
e 9 185
e 9 234
e 9 252
e 9 272
e 9 280
e 9 286
e 10 23
e 10 30
e 10 64
e 10 75
e 10 103
e 10 155
e 10 179
e 10 185
e 10 234
e 10 252
e 10 272
e 10 280
e 10 286
e 11 13
e 11 28
e 11 37
e 11 52
e 11 53
e 11 73
e 11 198
e 11 225
e 11 238
e 11 256
e 11 259
e 11 260
e 11 267
e 11 276
e 11 296
e 12 38
e 12 47
e 12 114
e 12 128
e 12 137
e 12 141
e 12 153
e 12 172
e 12 175
e 12 199
e 12 249
e 12 265
e 12 289
e 12 294
e 13 28
e 13 37
e 13 52
e 13 198
e 13 238
e 13 256
e 13 259
e 13 260
e 13 267
e 13 276
e 13 293
e 13 296
e 14 81
e 14 82
e 14 99
e 14 131
e 14 144
e 14 154
e 14 190
e 14 191
e 14 206
e 14 250
e 14 299
e 15 20
e 15 32
e 15 72
e 15 105
e 15 127
e 15 136
e 15 216
e 15 244
e 15 251
e 15 266
e 15 305
e 16 17
e 16 111
e 16 159
e 16 160
e 16 176
e 16 205
e 16 232
e 16 237
e 16 263
e 16 270
e 17 61
e 17 62
e 17 111
e 17 119
e 17 132
e 17 220
e 17 232
e 17 300
e 17 313
e 18 58
e 18 77
e 18 85
e 18 90
e 18 116
e 18 117
e 18 140
e 18 165
e 18 281
e 19 34
e 19 40
e 19 47
e 19 100
e 19 126
e 19 172
e 19 253
e 19 297
e 20 72
e 20 105
e 20 136
e 20 284
e 20 305
e 21 91
e 21 135
e 21 200
e 21 292
e 22 33
e 22 68
e 22 70
e 22 84
e 22 110
e 22 135
e 22 152
e 22 164
e 22 168
e 22 169
e 22 187
e 22 200
e 22 203
e 22 213
e 22 214
e 22 240
e 22 247
e 22 277
e 22 292
e 22 304
e 23 27
e 23 30
e 23 64
e 23 75
e 23 97
e 23 98
e 23 116
e 23 129
e 23 130
e 23 139
e 23 165
e 23 179
e 23 185
e 23 231
e 23 234
e 23 252
e 23 272
e 23 280
e 23 281
e 24 49
e 24 69
e 24 92
e 24 94
e 24 101
e 24 167
e 24 197
e 24 211
e 24 230
e 24 235
e 24 239
e 24 258
e 24 261
e 24 268
e 24 271
e 24 287
e 24 293
e 24 302
e 24 308
e 25 26
e 25 49
e 25 66
e 25 92
e 25 101
e 25 138
e 25 149
e 25 150
e 25 157
e 25 173
e 25 182
e 25 189
e 25 258
e 25 260
e 25 264
e 25 268
e 25 275
e 25 302
e 25 307
e 25 310
e 26 49
e 26 66
e 26 83
e 26 133
e 26 138
e 26 149
e 26 150
e 26 173
e 26 180
e 26 182
e 26 189
e 26 193
e 26 224
e 26 264
e 26 275
e 26 290
e 26 307
e 26 310
e 27 64
e 27 78
e 27 97
e 27 98
e 27 129
e 27 130
e 27 139
e 27 151
e 27 165
e 27 202
e 27 231
e 27 234
e 27 272
e 27 279
e 27 282
e 27 284
e 28 31
e 28 52
e 28 53
e 28 66
e 28 113
e 28 149
e 28 150
e 28 173
e 28 198
e 28 225
e 28 238
e 28 259
e 28 260
e 28 275
e 28 276
e 28 290
e 28 306
e 29 48
e 29 70
e 29 95
e 29 123
e 29 152
e 29 159
e 29 176
e 29 200
e 29 212
e 29 214
e 29 262
e 29 269
e 29 270
e 29 277
e 29 303
e 30 64
e 30 75
e 30 103
e 30 116
e 30 155
e 30 165
e 30 179
e 30 185
e 30 231
e 30 234
e 30 252
e 30 272
e 30 280
e 30 286
e 31 52
e 31 53
e 31 71
e 31 73
e 31 74
e 31 113
e 31 174
e 31 198
e 31 218
e 31 225
e 31 238
e 31 254
e 31 259
e 31 290
e 31 306
e 32 48
e 32 72
e 32 95
e 32 105
e 32 127
e 32 166
e 32 183
e 32 212
e 32 215
e 32 216
e 32 244
e 32 251
e 32 262
e 32 266
e 32 305
e 33 68
e 33 110
e 33 115
e 33 142
e 33 164
e 33 168
e 33 169
e 33 203
e 33 236
e 33 240
e 33 247
e 33 304
e 33 309
e 34 39
e 34 40
e 34 45
e 34 55
e 34 59
e 34 100
e 34 125
e 34 126
e 34 253
e 34 278
e 34 283
e 34 297
e 35 72
e 35 76
e 35 78
e 35 105
e 35 127
e 35 151
e 35 181
e 35 202
e 35 215
e 35 242
e 35 266
e 35 284
e 35 305
e 35 311
e 36 51
e 36 60
e 36 87
e 36 88
e 36 120
e 36 147
e 36 161
e 36 170
e 36 171
e 36 194
e 36 243
e 37 52
e 37 198
e 37 238
e 37 256
e 37 259
e 37 267
e 37 276
e 37 293
e 37 296
e 38 47
e 38 114
e 38 128
e 38 153
e 38 175
e 38 249
e 38 265
e 38 289
e 38 294
e 39 55
e 39 59
e 39 112
e 39 124
e 39 248
e 39 283
e 40 45
e 40 100
e 40 126
e 40 172
e 40 253
e 40 283
e 40 297
e 41 79
e 41 145
e 41 162
e 41 178
e 41 186
e 41 204
e 41 221
e 41 312
e 42 43
e 42 84
e 42 187
e 42 203
e 42 240
e 42 246
e 43 57
e 43 84
e 43 135
e 43 187
e 43 240
e 43 246
e 44 134
e 44 163
e 44 208
e 44 243
e 44 257
e 44 273
e 45 59
e 45 283
e 46 47
e 46 80
e 46 93
e 46 114
e 46 125
e 46 126
e 46 128
e 46 137
e 46 141
e 46 156
e 46 172
e 46 175
e 46 199
e 46 219
e 46 222
e 46 226
e 46 228
e 46 249
e 46 265
e 46 278
e 46 289
e 46 294
e 46 295
e 46 298
e 47 93
e 47 100
e 47 114
e 47 125
e 47 126
e 47 128
e 47 137
e 47 141
e 47 153
e 47 172
e 47 175
e 47 222
e 47 249
e 47 253
e 47 265
e 47 278
e 47 289
e 47 294
e 47 297
e 48 70
e 48 95
e 48 123
e 48 166
e 48 183
e 48 212
e 48 214
e 48 216
e 48 237
e 48 251
e 48 262
e 48 263
e 48 266
e 48 269
e 48 270
e 48 274
e 48 277
e 48 303
e 49 66
e 49 92
e 49 101
e 49 138
e 49 157
e 49 173
e 49 182
e 49 184
e 49 230
e 49 258
e 49 260
e 49 261
e 49 264
e 49 268
e 49 275
e 49 302
e 49 310
e 50 51
e 50 54
e 50 63
e 50 65
e 50 109
e 50 163
e 50 170
e 50 171
e 50 195
e 50 201
e 50 208
e 50 209
e 50 210
e 50 223
e 50 257
e 50 273
e 50 288
e 50 291
e 50 301
e 51 54
e 51 63
e 51 65
e 51 120
e 51 134
e 51 161
e 51 163
e 51 170
e 51 171
e 51 201
e 51 209
e 51 210
e 51 223
e 51 243
e 51 257
e 51 273
e 51 301
e 52 53
e 52 71
e 52 73
e 52 74
e 52 198
e 52 225
e 52 238
e 52 256
e 52 259
e 52 276
e 52 291
e 52 296
e 53 71
e 53 73
e 53 74
e 53 113
e 53 174
e 53 198
e 53 225
e 53 238
e 53 254
e 53 259
e 53 291
e 53 296
e 53 306
e 54 63
e 54 65
e 54 134
e 54 163
e 54 170
e 54 171
e 54 201
e 54 208
e 54 209
e 54 223
e 54 243
e 54 257
e 54 273
e 54 288
e 54 301
e 55 59
e 55 100
e 55 106
e 55 112
e 55 124
e 55 125
e 55 126
e 55 143
e 55 222
e 55 278
e 55 283
e 56 80
e 56 93
e 56 118
e 56 156
e 56 199
e 56 219
e 56 228
e 56 295
e 57 84
e 57 91
e 57 135
e 57 187
e 57 240
e 57 246
e 57 292
e 58 77
e 58 85
e 58 102
e 58 140
e 58 279
e 58 282
e 59 112
e 59 283
e 60 87
e 60 147
e 60 161
e 60 194
e 61 62
e 61 119
e 61 220
e 61 300
e 62 119
e 62 121
e 62 300
e 63 65
e 63 67
e 63 96
e 63 109
e 63 112
e 63 120
e 63 124
e 63 170
e 63 171
e 63 188
e 63 195
e 63 196
e 63 209
e 63 210
e 63 223
e 63 233
e 63 241
e 63 248
e 63 288
e 63 301
e 64 75
e 64 97
e 64 98
e 64 103
e 64 116
e 64 129
e 64 139
e 64 155
e 64 165
e 64 179
e 64 185
e 64 231
e 64 234
e 64 252
e 64 272
e 64 280
e 64 281
e 64 286
e 65 96
e 65 109
e 65 170
e 65 171
e 65 195
e 65 196
e 65 201
e 65 209
e 65 210
e 65 223
e 65 233
e 65 241
e 65 248
e 65 273
e 65 288
e 65 291
e 65 301
e 66 113
e 66 138
e 66 149
e 66 150
e 66 173
e 66 180
e 66 182
e 66 224
e 66 259
e 66 260
e 66 264
e 66 275
e 66 290
e 66 302
e 66 306
e 66 307
e 66 310
e 67 71
e 67 73
e 67 74
e 67 96
e 67 109
e 67 112
e 67 124
e 67 174
e 67 195
e 67 196
e 67 209
e 67 210
e 67 233
e 67 248
e 67 288
e 67 291
e 67 301
e 68 70
e 68 110
e 68 152
e 68 164
e 68 168
e 68 169
e 68 200
e 68 213
e 68 214
e 68 236
e 68 247
e 68 269
e 68 277
e 68 292
e 68 303
e 68 304
e 69 92
e 69 94
e 69 167
e 69 192
e 69 211
e 69 230
e 69 235
e 69 258
e 69 260
e 69 261
e 69 267
e 69 268
e 69 271
e 69 276
e 69 287
e 69 293
e 69 302
e 70 110
e 70 152
e 70 164
e 70 168
e 70 200
e 70 213
e 70 214
e 70 236
e 70 247
e 70 262
e 70 269
e 70 277
e 70 303
e 70 304
e 71 73
e 71 74
e 71 96
e 71 109
e 71 174
e 71 195
e 71 198
e 71 201
e 71 225
e 71 233
e 71 238
e 71 288
e 71 291
e 71 296
e 71 301
e 72 78
e 72 105
e 72 127
e 72 136
e 72 181
e 72 183
e 72 202
e 72 215
e 72 242
e 72 251
e 72 266
e 72 284
e 72 305
e 72 311
e 73 74
e 73 109
e 73 195
e 73 198
e 73 201
e 73 225
e 73 238
e 73 288
e 73 291
e 73 296
e 73 301
e 74 96
e 74 109
e 74 174
e 74 195
e 74 196
e 74 209
e 74 225
e 74 233
e 74 288
e 74 291
e 74 301
e 75 103
e 75 155
e 75 179
e 75 185
e 75 234
e 75 252
e 75 272
e 75 280
e 75 286
e 76 115
e 76 142
e 76 148
e 76 151
e 76 168
e 76 181
e 76 202
e 76 215
e 76 229
e 76 236
e 76 242
e 76 304
e 76 309
e 76 311
e 77 85
e 77 98
e 77 102
e 77 117
e 77 129
e 77 130
e 77 140
e 77 165
e 77 231
e 77 279
e 77 281
e 77 282
e 78 97
e 78 139
e 78 151
e 78 181
e 78 202
e 78 215
e 78 242
e 78 280
e 78 284
e 78 305
e 78 311
e 79 82
e 79 99
e 79 131
e 79 162
e 79 186
e 79 204
e 79 217
e 79 221
e 79 250
e 79 255
e 79 285
e 79 312
e 80 93
e 80 118
e 80 156
e 80 158
e 80 199
e 80 219
e 80 226
e 80 228
e 80 295
e 80 298
e 81 82
e 81 99
e 81 131
e 81 144
e 81 154
e 81 190
e 81 191
e 81 206
e 81 250
e 81 299
e 82 99
e 82 131
e 82 144
e 82 154
e 82 190
e 82 217
e 82 250
e 82 299
e 83 118
e 83 133
e 83 138
e 83 149
e 83 180
e 83 189
e 83 193
e 83 224
e 83 307
e 83 310
e 84 169
e 84 187
e 84 203
e 84 240
e 84 246
e 84 292
e 85 90
e 85 102
e 85 117
e 85 140
e 85 165
e 85 231
e 85 281
e 85 282
e 86 101
e 86 108
e 86 122
e 86 157
e 86 184
e 86 207
e 86 230
e 86 239
e 86 258
e 86 261
e 86 268
e 87 88
e 87 134
e 87 147
e 87 161
e 87 194
e 87 243
e 88 134
e 88 147
e 88 161
e 88 243
e 89 90
e 89 104
e 89 117
e 89 146
e 89 227
e 89 235
e 90 116
e 90 117
e 90 281
e 91 135
e 91 246
e 91 292
e 92 94
e 92 101
e 92 167
e 92 197
e 92 211
e 92 230
e 92 235
e 92 258
e 92 260
e 92 261
e 92 264
e 92 267
e 92 268
e 92 271
e 92 293
e 92 302
e 92 308
e 93 114
e 93 128
e 93 137
e 93 141
e 93 153
e 93 156
e 93 175
e 93 199
e 93 219
e 93 226
e 93 228
e 93 249
e 93 265
e 93 289
e 93 294
e 93 295
e 93 298
e 94 104
e 94 146
e 94 167
e 94 197
e 94 211
e 94 227
e 94 230
e 94 235
e 94 239
e 94 258
e 94 261
e 94 268
e 94 271
e 94 287
e 94 293
e 94 302
e 94 308
e 95 111
e 95 123
e 95 166
e 95 176
e 95 177
e 95 205
e 95 212
e 95 232
e 95 237
e 95 262
e 95 263
e 95 269
e 95 270
e 95 274
e 95 303
e 96 109
e 96 112
e 96 124
e 96 174
e 96 195
e 96 196
e 96 209
e 96 210
e 96 233
e 96 248
e 96 288
e 96 301
e 97 98
e 97 102
e 97 129
e 97 130
e 97 139
e 97 140
e 97 151
e 97 165
e 97 181
e 97 202
e 97 231
e 97 279
e 97 282
e 98 102
e 98 129
e 98 130
e 98 139
e 98 140
e 98 165
e 98 231
e 98 234
e 98 272
e 98 279
e 98 282
e 99 131
e 99 144
e 99 154
e 99 186
e 99 204
e 99 217
e 99 221
e 99 250
e 99 255
e 99 285
e 99 299
e 99 312
e 100 125
e 100 126
e 100 137
e 100 143
e 100 172
e 100 222
e 100 253
e 100 278
e 100 283
e 100 297
e 101 122
e 101 157
e 101 182
e 101 184
e 101 211
e 101 230
e 101 258
e 101 261
e 101 264
e 101 268
e 101 302
e 102 129
e 102 130
e 102 139
e 102 140
e 102 165
e 102 231
e 102 279
e 102 281
e 102 282
e 103 116
e 103 155
e 103 179
e 103 192
e 103 234
e 103 252
e 103 272
e 103 286
e 104 146
e 104 167
e 104 197
e 104 207
e 104 211
e 104 227
e 104 230
e 104 235
e 104 239
e 104 271
e 104 308
e 105 127
e 105 136
e 105 216
e 105 244
e 105 251
e 105 266
e 105 284
e 105 305
e 106 125
e 106 143
e 106 156
e 106 158
e 106 174
e 106 218
e 106 222
e 106 226
e 106 245
e 106 254
e 106 298
e 107 111
e 107 132
e 107 145
e 107 166
e 107 177
e 107 178
e 107 216
e 107 232
e 107 244
e 107 263
e 107 274
e 107 313
e 108 122
e 108 157
e 108 184
e 108 207
e 108 239
e 108 268
e 109 112
e 109 124
e 109 170
e 109 171
e 109 174
e 109 195
e 109 196
e 109 201
e 109 209
e 109 210
e 109 223
e 109 233
e 109 248
e 109 288
e 109 291
e 109 301
e 110 115
e 110 142
e 110 152
e 110 164
e 110 168
e 110 169
e 110 200
e 110 213
e 110 214
e 110 236
e 110 247
e 110 277
e 110 303
e 110 304
e 110 309
e 111 119
e 111 123
e 111 132
e 111 160
e 111 176
e 111 177
e 111 178
e 111 220
e 111 232
e 111 237
e 111 263
e 111 270
e 111 274
e 111 300
e 111 313
e 112 124
e 112 174
e 112 188
e 112 195
e 112 196
e 112 210
e 112 233
e 112 241
e 112 248
e 112 283
e 113 133
e 113 138
e 113 149
e 113 150
e 113 173
e 113 180
e 113 218
e 113 224
e 113 254
e 113 259
e 113 275
e 113 290
e 113 306
e 113 307
e 114 128
e 114 137
e 114 141
e 114 153
e 114 175
e 114 199
e 114 219
e 114 249
e 114 265
e 114 289
e 114 294
e 114 295
e 115 142
e 115 148
e 115 164
e 115 168
e 115 169
e 115 229
e 115 236
e 115 304
e 115 309
e 116 117
e 116 165
e 116 231
e 116 252
e 116 281
e 117 140
e 117 165
e 117 231
e 117 281
e 118 133
e 118 156
e 118 158
e 118 180
e 118 193
e 118 224
e 118 228
e 119 121
e 119 132
e 119 220
e 119 232
e 119 300
e 119 313
e 120 170
e 120 171
e 120 188
e 120 210
e 120 241
e 120 248
e 121 132
e 121 178
e 121 204
e 121 220
e 121 300
e 121 313
e 122 157
e 122 182
e 122 184
e 122 258
e 122 268
e 123 159
e 123 160
e 123 166
e 123 176
e 123 205
e 123 212
e 123 232
e 123 237
e 123 262
e 123 263
e 123 269
e 123 270
e 123 274
e 123 303
e 124 174
e 124 188
e 124 195
e 124 196
e 124 209
e 124 210
e 124 233
e 124 241
e 124 248
e 124 301
e 125 126
e 125 137
e 125 143
e 125 172
e 125 222
e 125 226
e 125 253
e 125 278
e 125 283
e 125 297
e 125 298
e 126 137
e 126 143
e 126 172
e 126 222
e 126 253
e 126 278
e 126 283
e 126 289
e 126 297
e 127 136
e 127 181
e 127 183
e 127 215
e 127 216
e 127 242
e 127 244
e 127 251
e 127 266
e 127 305
e 127 311
e 128 137
e 128 141
e 128 153
e 128 172
e 128 175
e 128 199
e 128 249
e 128 265
e 128 289
e 128 294
e 129 130
e 129 139
e 129 140
e 129 165
e 129 231
e 129 279
e 129 281
e 129 282
e 130 139
e 130 140
e 130 151
e 130 165
e 130 202
e 130 231
e 130 279
e 130 282
e 131 144
e 131 154
e 131 190
e 131 191
e 131 206
e 131 217
e 131 250
e 131 255
e 131 285
e 131 299
e 132 145
e 132 177
e 132 178
e 132 220
e 132 232
e 132 263
e 132 274
e 132 300
e 132 313
e 133 149
e 133 150
e 133 158
e 133 180
e 133 218
e 133 224
e 133 254
e 133 290
e 133 306
e 133 307
e 134 161
e 134 163
e 134 208
e 134 243
e 134 257
e 134 273
e 135 240
e 135 246
e 135 292
e 136 216
e 136 284
e 136 305
e 137 141
e 137 153
e 137 172
e 137 175
e 137 199
e 137 222
e 137 249
e 137 253
e 137 265
e 137 278
e 137 289
e 137 294
e 137 295
e 137 297
e 138 149
e 138 150
e 138 173
e 138 180
e 138 182
e 138 189
e 138 224
e 138 260
e 138 264
e 138 275
e 138 290
e 138 307
e 138 310
e 139 140
e 139 151
e 139 181
e 139 202
e 139 231
e 139 242
e 139 279
e 139 282
e 140 165
e 140 231
e 140 279
e 140 281
e 140 282
e 141 153
e 141 175
e 141 199
e 141 219
e 141 249
e 141 265
e 141 289
e 141 294
e 141 295
e 142 148
e 142 164
e 142 168
e 142 169
e 142 229
e 142 236
e 142 304
e 142 309
e 143 158
e 143 174
e 143 222
e 143 226
e 143 245
e 143 278
e 143 298
e 144 154
e 144 190
e 144 191
e 144 206
e 144 217
e 144 250
e 144 299
e 145 162
e 145 177
e 145 178
e 145 186
e 145 204
e 145 244
e 145 312
e 145 313
e 146 167
e 146 197
e 146 207
e 146 227
e 146 235
e 146 239
e 146 308
e 147 161
e 147 194
e 147 243
e 148 229
e 148 279
e 148 304
e 148 309
e 149 150
e 149 173
e 149 180
e 149 218
e 149 224
e 149 254
e 149 259
e 149 260
e 149 275
e 149 290
e 149 306
e 149 307
e 150 173
e 150 180
e 150 218
e 150 224
e 150 254
e 150 259
e 150 260
e 150 275
e 150 290
e 150 306
e 150 307
e 151 181
e 151 202
e 151 215
e 151 229
e 151 236
e 151 242
e 151 279
e 151 309
e 151 311
e 152 164
e 152 200
e 152 213
e 152 214
e 152 247
e 152 269
e 152 277
e 152 292
e 152 303
e 153 175
e 153 199
e 153 219
e 153 249
e 153 265
e 153 289
e 153 294
e 154 190
e 154 191
e 154 206
e 154 250
e 154 255
e 154 285
e 154 299
e 155 179
e 155 185
e 155 234
e 155 272
e 155 280
e 155 286
e 156 158
e 156 226
e 156 228
e 156 245
e 156 295
e 156 298
e 157 182
e 157 184
e 157 258
e 157 264
e 157 268
e 157 310
e 158 218
e 158 222
e 158 226
e 158 228
e 158 245
e 158 298
e 159 160
e 159 176
e 159 205
e 159 237
e 159 269
e 159 270
e 160 176
e 160 205
e 160 232
e 160 237
e 160 263
e 160 270
e 161 171
e 161 194
e 161 243
e 162 178
e 162 186
e 162 204
e 162 217
e 162 221
e 162 285
e 162 312
e 163 201
e 163 208
e 163 223
e 163 257
e 163 273
e 164 168
e 164 169
e 164 203
e 164 213
e 164 214
e 164 236
e 164 240
e 164 247
e 164 277
e 164 292
e 164 304
e 164 309
e 165 231
e 165 234
e 165 252
e 165 281
e 165 282
e 166 176
e 166 177
e 166 183
e 166 212
e 166 216
e 166 237
e 166 244
e 166 251
e 166 262
e 166 263
e 166 269
e 166 270
e 166 274
e 167 197
e 167 211
e 167 227
e 167 230
e 167 235
e 167 239
e 167 258
e 167 261
e 167 268
e 167 271
e 167 287
e 167 302
e 167 308
e 168 169
e 168 203
e 168 213
e 168 229
e 168 236
e 168 247
e 168 304
e 168 309
e 169 187
e 169 203
e 169 236
e 169 240
e 169 247
e 169 292
e 169 304
e 169 309
e 170 171
e 170 188
e 170 209
e 170 210
e 170 223
e 170 241
e 170 243
e 170 248
e 170 273
e 170 301
e 171 188
e 171 209
e 171 210
e 171 223
e 171 241
e 171 243
e 171 273
e 171 301
e 172 222
e 172 249
e 172 253
e 172 278
e 172 289
e 172 294
e 172 297
e 173 259
e 173 260
e 173 264
e 173 275
e 173 290
e 173 302
e 173 306
e 173 307
e 174 195
e 174 196
e 174 233
e 174 245
e 175 199
e 175 219
e 175 249
e 175 265
e 175 289
e 175 294
e 175 295
e 176 205
e 176 232
e 176 237
e 176 263
e 176 270
e 176 274
e 177 178
e 177 220
e 177 232
e 177 237
e 177 244
e 177 263
e 177 270
e 177 274
e 177 300
e 177 313
e 178 186
e 178 204
e 178 220
e 178 244
e 178 300
e 178 312
e 178 313
e 179 185
e 179 234
e 179 252
e 179 272
e 179 280
e 179 286
e 180 189
e 180 193
e 180 224
e 180 290
e 180 307
e 180 310
e 181 202
e 181 215
e 181 242
e 181 266
e 181 284
e 181 305
e 181 311
e 182 184
e 182 189
e 182 258
e 182 264
e 182 302
e 182 310
e 183 212
e 183 215
e 183 216
e 183 251
e 183 262
e 183 266
e 183 303
e 183 305
e 183 311
e 184 207
e 184 230
e 184 239
e 184 258
e 184 261
e 184 264
e 184 268
e 185 234
e 185 272
e 185 280
e 185 286
e 186 204
e 186 217
e 186 221
e 186 255
e 186 285
e 186 312
e 187 203
e 187 240
e 187 246
e 187 292
e 188 196
e 188 210
e 188 241
e 188 248
e 189 193
e 189 224
e 189 264
e 189 307
e 189 310
e 190 191
e 190 206
e 190 250
e 190 299
e 191 206
e 191 250
e 191 299
e 192 256
e 192 267
e 192 271
e 192 276
e 192 287
e 192 293
e 193 224
e 193 307
e 193 310
e 195 196
e 195 209
e 195 210
e 195 223
e 195 233
e 195 248
e 195 288
e 195 291
e 195 301
e 196 209
e 196 210
e 196 233
e 196 241
e 196 248
e 196 288
e 196 301
e 197 207
e 197 211
e 197 227
e 197 230
e 197 235
e 197 239
e 197 258
e 197 261
e 197 268
e 197 271
e 197 308
e 198 225
e 198 238
e 198 256
e 198 259
e 198 275
e 198 276
e 198 296
e 198 306
e 199 219
e 199 249
e 199 265
e 199 289
e 199 294
e 199 295
e 200 213
e 200 214
e 200 247
e 200 262
e 200 269
e 200 277
e 200 292
e 200 303
e 201 208
e 201 209
e 201 223
e 201 257
e 201 273
e 201 288
e 201 291
e 201 301
e 202 215
e 202 229
e 202 242
e 202 279
e 202 284
e 202 311
e 203 240
e 203 246
e 203 247
e 203 292
e 204 217
e 204 221
e 204 285
e 204 312
e 205 232
e 205 237
e 205 263
e 205 270
e 206 250
e 206 255
e 206 285
e 206 299
e 207 227
e 207 230
e 207 239
e 207 261
e 207 308
e 208 223
e 208 257
e 208 273
e 209 210
e 209 223
e 209 233
e 209 241
e 209 248
e 209 273
e 209 288
e 209 291
e 209 301
e 210 233
e 210 241
e 210 248
e 210 301
e 211 230
e 211 235
e 211 258
e 211 261
e 211 267
e 211 268
e 211 271
e 211 287
e 211 293
e 211 302
e 211 308
e 212 214
e 212 216
e 212 237
e 212 251
e 212 262
e 212 263
e 212 266
e 212 269
e 212 270
e 212 274
e 212 303
e 213 214
e 213 236
e 213 247
e 213 262
e 213 269
e 213 277
e 213 303
e 213 304
e 213 309
e 214 247
e 214 262
e 214 269
e 214 277
e 214 303
e 215 236
e 215 242
e 215 251
e 215 266
e 215 284
e 215 305
e 215 311
e 216 244
e 216 251
e 216 266
e 216 274
e 216 305
e 217 221
e 217 250
e 217 255
e 217 285
e 217 299
e 217 312
e 218 224
e 218 245
e 218 254
e 218 259
e 218 290
e 218 306
e 219 228
e 219 249
e 219 265
e 219 295
e 220 232
e 220 300
e 220 313
e 221 255
e 221 285
e 221 312
e 222 226
e 222 245
e 222 253
e 222 278
e 222 289
e 222 297
e 222 298
e 223 257
e 223 273
e 223 288
e 223 291
e 223 301
e 224 290
e 224 307
e 224 310
e 225 238
e 225 259
e 225 288
e 225 291
e 225 296
e 225 306
e 226 228
e 226 245
e 226 278
e 226 298
e 227 235
e 227 239
e 227 271
e 227 308
e 228 295
e 228 298
e 229 236
e 229 304
e 229 309
e 230 235
e 230 239
e 230 258
e 230 261
e 230 268
e 230 271
e 230 302
e 230 308
e 231 234
e 231 252
e 231 279
e 231 281
e 231 282
e 232 237
e 232 263
e 232 270
e 232 274
e 232 300
e 232 313
e 233 241
e 233 248
e 233 288
e 233 291
e 233 301
e 234 252
e 234 272
e 234 280
e 234 286
e 235 239
e 235 261
e 235 271
e 235 287
e 235 308
e 236 247
e 236 304
e 236 309
e 237 263
e 237 270
e 237 274
e 238 256
e 238 259
e 238 276
e 238 296
e 238 306
e 239 261
e 239 268
e 239 308
e 240 246
e 240 247
e 240 292
e 241 248
e 242 266
e 242 284
e 242 305
e 242 311
e 243 273
e 244 251
e 245 254
e 245 298
e 246 292
e 247 269
e 247 277
e 247 292
e 247 303
e 247 304
e 248 301
e 249 265
e 249 289
e 249 294
e 249 295
e 250 255
e 250 285
e 250 299
e 251 262
e 251 266
e 251 305
e 252 272
e 252 281
e 253 278
e 253 283
e 253 297
e 254 259
e 254 290
e 254 306
e 255 285
e 255 312
e 256 267
e 256 276
e 256 293
e 256 296
e 257 273
e 257 288
e 258 261
e 258 264
e 258 268
e 258 302
e 258 308
e 259 260
e 259 275
e 259 290
e 259 296
e 259 306
e 260 264
e 260 267
e 260 275
e 260 276
e 260 290
e 260 293
e 260 302
e 261 268
e 261 271
e 261 302
e 261 308
e 262 266
e 262 269
e 262 277
e 262 303
e 263 270
e 263 274
e 264 268
e 264 275
e 264 302
e 264 310
e 265 289
e 265 294
e 265 295
e 266 305
e 266 311
e 267 276
e 267 287
e 267 293
e 268 302
e 268 308
e 269 277
e 269 303
e 270 274
e 271 287
e 271 293
e 271 308
e 272 280
e 272 286
e 273 288
e 273 301
e 275 290
e 275 306
e 275 307
e 276 287
e 276 293
e 276 296
e 277 303
e 278 289
e 278 297
e 278 298
e 279 282
e 280 284
e 280 286
e 283 297
e 284 305
e 284 311
e 285 312
e 287 293
e 288 291
e 288 301
e 289 294
e 289 297
e 290 306
e 290 307
e 291 296
e 291 301
e 293 302
e 295 298
e 300 313
e 304 309
e 305 311
e 307 310
